
ACE v2.1 

  instance
    name:PyCSP

  Loading variables...

  Loading constraints...

  domains
    types:1  values:108  sizes:[3:36]
  variables
    count:36  arrays:1  degrees:[27:4,28:18,29:14]
  constraints
    count:231  specific:15  groups:2  arities:[4:216,8:8,9:4,18:3]
    distribution:[Cardinality:4,ConstraintIntension:216,LexicographicLE:11]
    intStructures:(1,shared:215)
    wck:0.58  cpu:1.296  mem:20M484

  Building solver... 

  solver
    guaranteedAC:true
    wck:0.63  cpu:1.343  mem:22M736

  preprocessing
    revisions:(864,useless=864)  values:108  unsat:false
    wck:0.0  cpu:1.343  mem:22M736

    run0  dpts:-1..35  effs:36  wck:0.00  sols:1

  global
    effs:36  revisions:(3569,useless=3538)
    stop:REACHED_GOAL  sols:1  sol1Cpu:1.343
    wck:0.66  cpu:1.343  mem:23M102


  Solution 1 in JSON format:
   {
    x: [
     [0, 0, 0, 1, 1, 1, 2, 2, 2],
     [0, 1, 2, 0, 1, 2, 0, 1, 2],
     [0, 1, 2, 1, 2, 0, 2, 0, 1],
     [0, 1, 2, 2, 0, 1, 1, 2, 0]
    ]
   }

s SATISFIABLE

v <instantiation id='sol1' type='solution'> <list> x[][] </list> <values> 0x3 1x3 2x3 0 1 2 0 1 2 0 1 2 0 1 2 1 2 0 2 0 1 0 1 2 2 0 1 1 2 0 </values> </instantiation>

d WRONG DECISIONS 0
d FOUND SOLUTIONS 1
d INCOMPLETE EXPLORATION

c real time : 1.359
